FPU set for double precision

Propagation version: TRIE_V1

============================[ Problem Statistics ]=============================
|                                                                             |
|  Number of variables:          1728                                         |
|  Number of clauses:           53223                                         |
|  Parse time:                   0.03 s                                       |
|  Simplification time:          0.02 s             